# Solution for model r5_t18_m9_8
# Finished Task: 16 / 18
# Makespan: 668.0, Total Distance: 294.0, Total Time: 5.9625
# R O S F
0 0 17 110.0 110.0
1 1 15 63.0 63.0
2 2 5 26.0 26.0
3 3 9 19.0 19.0
4 4 19 95.0 95.0
5 2 6 554.0 579.0
6 2 -1 585.0 622.0
7 -1 -1 620.0 644.0
8 1 14 522.0 554.0
9 3 22 382.0 418.0
10 4 11 383.0 415.0
11 4 -1 599.0 635.0
12 -1 -1 644.0 668.0
13 1 -1 631.0 668.0
14 1 13 588.0 611.0
15 1 18 238.0 277.0
16 3 -1 600.0 631.0
17 0 20 418.0 450.0
18 1 8 450.0 488.0
19 4 10 338.0 369.0
20 0 -1 579.0 599.0
21 3 16 554.0 588.0
22 3 21 488.0 522.0
